# Solution for model count
# Objective value = 10
z#1 1
z#2 1
z#3 0
z#4 1
z#5 0
z#6 0
z#7 0
z#8 0
z#9 1
z#10 0
z#11 0
z#12 1
z#13 0
z#14 0
z#15 0
z#16 1
z#17 1
z#18 1
z#19 1
z#20 0
z#21 0
z#22 0
z#23 0
z#24 1
x#24 154
x#23 0
x#22 0
x#21 0
x#20 0
x#19 2065
x#18 555
x#17 188
x#16 912
x#15 0
x#14 0
x#13 0
x#12 891
x#11 0
x#10 0
x#9 1939
x#8 0
x#7 0
x#6 0
x#5 0
x#4 2842
x#3 0
x#2 414
x#1 40
